p cnf 92 298
1 2 -3 0
-1 -2 -3 0
1 -2 3 0
-1 2 3 0
-6 -1 0
-6 -5 0
1 5 6 0
-7 4 0
-7 -6 0
-4 6 7 0
9 7 0
9 -8 0
-7 8 -9 0
-12 10 0
-12 -11 0
-10 11 12 0
13 -12 0
13 7 0
12 -7 -13 0
16 15 0
16 -4 0
-15 4 -16 0
18 16 0
18 -17 0
-16 17 -18 0
-19 -14 0
-19 18 0
14 -18 19 0
9 19 -20 0
-9 -19 -20 0
9 -19 20 0
-9 19 20 0
13 -20 -21 0
-13 20 -21 0
13 20 21 0
-13 -20 21 0
-22 9 0
-22 21 0
-9 -21 22 0
6 -9 -23 0
-6 9 -23 0
6 9 23 0
-6 -9 23 0
-2 -24 -25 0
2 24 -25 0
-2 24 25 0
2 -24 25 0
-27 26 0
-27 6 0
-26 -6 27 0
-27 9 -28 0
27 -9 -28 0
-27 -9 28 0
27 9 28 0
-29 -25 0
-29 28 0
25 -28 29 0
-30 -15 0
-30 -18 0
15 18 30 0
-31 26 0
-31 -30 0
-26 30 31 0
-29 -31 -32 0
29 31 -32 0
-29 31 32 0
29 -31 32 0
33 -23 0
33 32 0
23 -32 -33 0
34 22 0
34 33 0
-22 -33 -34 0
-3 34 -35 0
3 -34 -35 0
-3 -34 35 0
3 34 35 0
37 -20 0
37 -36 0
20 36 -37 0
40 38 0
40 39 0
-38 -39 -40 0
41 -40 0
41 7 0
40 -7 -41 0
-42 16 0
-42 5 0
-16 -5 42 0
-41 42 -43 0
41 -42 -43 0
-41 -42 43 0
41 42 43 0
-37 43 -44 0
37 -43 -44 0
-37 -43 44 0
37 43 44 0
45 29 0
45 -39 0
-29 39 -45 0
-46 21 0
-46 9 0
-21 -9 46 0
45 46 -47 0
-45 -46 -47 0
45 -46 47 0
-45 46 47 0
48 44 0
48 47 0
-44 -47 -48 0
-49 40 0
-49 -13 0
-40 13 49 0
-50 -15 0
-50 -22 0
15 22 50 0
51 49 0
51 50 0
-49 -50 -51 0
52 48 0
52 51 0
-48 -51 -52 0
53 35 0
53 -52 0
-35 52 -53 0
54 -1 0
54 38 0
1 -38 -54 0
55 -28 0
55 -14 0
28 14 -55 0
56 7 0
56 55 0
-7 -55 -56 0
-32 -56 -57 0
32 56 -57 0
-32 56 57 0
32 -56 57 0
-25 -57 -58 0
25 57 -58 0
-25 57 58 0
25 -57 58 0
-54 -58 -59 0
54 58 -59 0
-54 58 59 0
54 -58 59 0
-60 7 0
-60 20 0
-7 -20 60 0
-59 60 -61 0
59 -60 -61 0
-59 -60 61 0
59 60 61 0
-40 -11 -62 0
40 11 -62 0
-40 11 62 0
40 -11 62 0
63 -61 0
63 -62 0
61 62 -63 0
14 18 -64 0
-14 -18 -64 0
14 -18 64 0
-14 18 64 0
63 -64 -65 0
-63 64 -65 0
63 64 65 0
-63 -64 65 0
66 -21 0
66 -1 0
21 1 -66 0
67 65 0
67 66 0
-65 -66 -67 0
-68 -27 0
-68 12 0
27 -12 68 0
11 -26 -69 0
-11 26 -69 0
11 26 69 0
-11 -26 69 0
70 -68 0
70 -69 0
68 69 -70 0
25 54 -71 0
-25 -54 -71 0
25 -54 71 0
-25 54 71 0
-70 71 -72 0
70 -71 -72 0
-70 -71 72 0
70 71 72 0
73 67 0
73 -72 0
-67 72 -73 0
38 -54 -74 0
-38 54 -74 0
38 54 74 0
-38 -54 74 0
-75 -74 0
-75 -54 0
74 54 75 0
-76 10 0
-76 -75 0
-10 75 76 0
15 -77 -78 0
-15 77 -78 0
15 77 78 0
-15 -77 78 0
79 78 0
79 -14 0
-78 14 -79 0
-80 -76 0
-80 79 0
76 -79 80 0
-81 -73 0
-81 -80 0
73 80 81 0
2 -12 -82 0
-2 12 -82 0
2 12 82 0
-2 -12 82 0
-55 -82 -83 0
55 82 -83 0
-55 82 83 0
55 -82 83 0
-12 83 -84 0
12 -83 -84 0
-12 -83 84 0
12 83 84 0
-39 2 -85 0
39 -2 -85 0
-39 -2 85 0
39 2 85 0
75 -22 -86 0
-75 22 -86 0
75 22 86 0
-75 -22 86 0
87 -85 0
87 -86 0
85 86 -87 0
84 87 -88 0
-84 -87 -88 0
84 -87 88 0
-84 87 88 0
15 18 -89 0
-15 -18 -89 0
15 -18 89 0
-15 18 89 0
90 88 0
90 89 0
-88 -89 -90 0
91 -81 0
91 -90 0
81 90 -91 0
92 -53 0
92 -91 0
53 91 -92 0
54 28 -35 80 0
-5 64 -3 -17 0
-46 -53 -18 -31 51 32 0
21 -38 -45 0
-68 42 41 13 9 -65 0
77 42 47 -79 -20 0
72 -24 -90 0
-20 -3 11 -17 0
30 -25 -52 85 57 -38 0
81 62 5 75 -23 0
-16 71 -19 63 0
-31 -68 0
-51 -28 12 63 -13 21 0
-11 -53 67 0
-72 -29 58 0
20 -21 26 0
-22 -42 -92 -45 0
38 -74 -51 7 -61 0
-43 -81 77 0
75 11 67 48 62 38 0
40 92 -84 78 0
34 -28 -78 -44 0
7 44 -32 -1 0
78 -18 12 65 0
-38 77 0
29 13 65 -5 34 85 0
17 1 -5 -6 66 0
72 64 0
9 -17 -91 0
28 92 84 88 0
30 37 2 14 0
-8 -19 -51 -37 -57 0
52 84 -19 30 -63 50 0
76 -20 39 -51 89 13 0
-53 78 -62 91 0
56 77 42 -57 61 0
64 48 -54 0
-50 5 14 54 53 -64 0
-30 -77 35 75 0
92 0
